c FILE /home/rafael/Documents/HappySet/MIHS/inputs/happygen/output/graph_d_regular_k7_p0.5_v50_20241127_082652.txt
c SOURCE This is a d-regular graph formed for the happy graph colouring problem.
c DESCRIPTION It was generated using the problem generator of Rhyd Lewis
c
c GRAPH STATS
c Seed                             = 1789438732
c Number of Nodes                  = 50
c Number of colours k              = 7
c Number of pre-assignments        = 25
c Degree of all vertices           = 6
c Density                          = 0.122449
c 
c The degrees of nodes 1 to 50, respectively, are as follows 
c [6, 6, 6, 6, 6, 6, 6, 6, 6, 6, 6, 6, 6, 6, 6, 6, 6, 6, 6, 6, 6, 6, 6, 6, 6, 6, 
c  6, 6, 6, 6, 6, 6, 6, 6, 6, 6, 6, 6, 6, 6, 6, 6, 6, 6, 6, 6, 6, 6, 6, 6] 
c  
p edge 50 150 7
e 1 6
e 1 7
e 1 8
e 1 20
e 1 33
e 1 44
e 2 4
e 2 14
e 2 25
e 2 27
e 2 33
e 2 44
e 3 15
e 3 22
e 3 24
e 3 26
e 3 38
e 3 40
e 4 20
e 4 29
e 4 40
e 4 48
e 4 50
e 5 7
e 5 18
e 5 24
e 5 34
e 5 35
e 5 44
e 6 30
e 6 33
e 6 39
e 6 41
e 6 43
e 7 11
e 7 16
e 7 46
e 7 50
e 8 10
e 8 14
e 8 15
e 8 23
e 8 42
e 9 17
e 9 22
e 9 34
e 9 40
e 9 44
e 9 50
e 10 26
e 10 40
e 10 46
e 10 47
e 10 50
e 11 14
e 11 21
e 11 24
e 11 48
e 11 50
e 12 22
e 12 27
e 12 30
e 12 32
e 12 35
e 12 37
e 13 17
e 13 18
e 13 20
e 13 23
e 13 30
e 13 31
e 14 15
e 14 21
e 14 45
e 15 32
e 15 36
e 15 49
e 16 29
e 16 35
e 16 41
e 16 43
e 16 47
e 17 19
e 17 25
e 17 28
e 17 49
e 18 25
e 18 26
e 18 41
e 18 43
e 19 23
e 19 25
e 19 37
e 19 38
e 19 45
e 20 23
e 20 34
e 20 41
e 21 24
e 21 27
e 21 33
e 21 34
e 22 24
e 22 25
e 22 26
e 23 25
e 23 40
e 24 27
e 26 42
e 26 45
e 27 47
e 27 49
e 28 31
e 28 35
e 28 36
e 28 38
e 28 43
e 29 32
e 29 39
e 29 42
e 29 50
e 30 31
e 30 46
e 30 48
e 31 39
e 31 40
e 31 46
e 32 39
e 32 46
e 32 49
e 33 42
e 33 48
e 34 37
e 34 49
e 35 36
e 35 45
e 36 37
e 36 39
e 36 43
e 37 38
e 37 41
e 38 45
e 38 47
e 39 42
e 41 46
e 42 48
e 43 44
e 44 47
e 45 47
e 48 49
n 1 4
n 2 4
n 5 6
n 8 4
n 12 4
n 13 4
n 14 4
n 17 4
n 21 4
n 23 4
n 25 4
n 26 3
n 29 2
n 30 4
n 31 4
n 33 4
n 36 5
n 38 7
n 40 4
n 41 1
n 43 5
n 47 7
n 48 4
n 49 4
n 50 2
